
Gurobi 6.5.2 (win64) logging started 07/24/16 17:30:17


Gurobi 6.5.2 (win64) logging started 07/24/16 17:30:17

Optimize a model with 1849 rows, 260 columns and 4229 nonzeros
Coefficient statistics:
  Matrix range    [1e+00, 3e+02]
  Objective range [2e+00, 3e+02]
  Bounds range    [1e+00, 1e+00]
  RHS range       [1e+00, 2e+03]
Presolve removed 1731 rows and 36 columns
Presolve time: 0.00s
Presolved: 118 rows, 224 columns, 1098 nonzeros
Variable types: 0 continuous, 224 integer (224 binary)

Root relaxation: objective 1.738000e+03, 94 iterations, 0.00 seconds

    Nodes    |    Current Node    |     Objective Bounds      |     Work
 Expl Unexpl |  Obj  Depth IntInf | Incumbent    BestBd   Gap | It/Node Time

*    0     0               0    1738.0000000 1738.00000  0.00%     -    0s

Explored 0 nodes (94 simplex iterations) in 0.00 seconds
Thread count was 8 (of 8 available processors)

Optimal solution found (tolerance 1.00e-04)
Best objective 1.738000000000e+03, best bound 1.738000000000e+03, gap 0.0%

Wrote requested result file 'H1\instance14\\Results14SG_Sol5.lp'

